(set-info :status unsat)
(declare-const symbol_216 (_ BitVec 32))
(declare-const symbol_140 (_ BitVec 32))
(declare-const symbol_381 (_ BitVec 32))
(declare-const symbol_393 (_ BitVec 32))
(declare-const symbol_738 (_ BitVec 32))
(declare-const symbol_240 (_ BitVec 32))
(declare-const symbol_472 (_ BitVec 32))
(declare-const symbol_222 (_ BitVec 32))
(declare-const symbol_25 (_ BitVec 32))
(declare-const symbol_568 (_ BitVec 32))
(declare-const symbol_562 (_ BitVec 32))
(declare-const symbol_605 (_ BitVec 32))
(declare-const symbol_197 (_ BitVec 32))
(declare-const symbol_513 (_ BitVec 32))
(declare-const symbol_293 (_ BitVec 32))
(declare-const symbol_541 (_ BitVec 32))
(declare-const symbol_73 (_ BitVec 32))
(declare-const symbol_110 (_ BitVec 32))
(declare-const symbol_91 (_ BitVec 32))
(declare-const symbol_58 (_ BitVec 32))
(declare-const symbol_388 (_ BitVec 32))
(declare-const symbol_193 (_ BitVec 32))
(declare-const symbol_115 (_ BitVec 32))
(declare-const symbol_257 (_ BitVec 32))
(declare-const symbol_178 (_ BitVec 32))
(declare-const symbol_250 (_ BitVec 32))
(declare-const symbol_652 (_ BitVec 32))
(declare-const symbol_413 (_ BitVec 32))
(declare-const symbol_131 (_ BitVec 32))
(declare-const symbol_620 (_ BitVec 32))
(declare-const symbol_289 (_ BitVec 32))
(declare-const symbol_478 (_ BitVec 32))
(declare-const symbol_757 (_ BitVec 32))
(declare-const symbol_26 (_ BitVec 32))
(declare-const symbol_662 (_ BitVec 32))
(declare-const symbol_593 (_ BitVec 32))
(declare-const symbol_15 (_ BitVec 32))
(declare-const symbol_746 (_ BitVec 32))
(declare-const symbol_656 (_ BitVec 32))
(declare-const symbol_44 (_ BitVec 32))
(declare-const symbol_485 (_ BitVec 32))
(declare-const symbol_251 (_ BitVec 32))
(declare-const symbol_584 (_ BitVec 32))
(declare-const symbol_398 (_ BitVec 32))
(declare-const symbol_103 (_ BitVec 32))
(declare-const symbol_750 (_ BitVec 32))
(declare-const symbol_255 (_ BitVec 32))
(declare-const symbol_231 (_ BitVec 32))
(declare-const symbol_407 (_ BitVec 32))
(declare-const symbol_704 (_ BitVec 32))
(declare-const symbol_267 (_ BitVec 32))
(declare-const symbol_265 (_ BitVec 32))
(declare-const symbol_95 (_ BitVec 32))
(declare-const symbol_748 (_ BitVec 32))
(declare-const symbol_448 (_ BitVec 32))
(declare-const symbol_759 (_ BitVec 32))
(declare-const symbol_682 (_ BitVec 32))
(declare-const symbol_441 (_ BitVec 32))
(declare-const symbol_281 (_ BitVec 32))
(declare-const symbol_357 (_ BitVec 32))
(declare-const symbol_234 (_ BitVec 32))
(declare-const symbol_594 (_ BitVec 32))
(declare-const symbol_470 (_ BitVec 32))
(declare-const symbol_493 (_ BitVec 32))
(declare-const symbol_507 (_ BitVec 32))
(declare-const symbol_474 (_ BitVec 32))
(declare-const symbol_269 (_ BitVec 32))
(declare-const symbol_66 (_ BitVec 32))
(declare-const symbol_765 (_ BitVec 32))
(declare-const symbol_429 (_ BitVec 32))
(declare-const symbol_343 (_ BitVec 32))
(declare-const symbol_180 (_ BitVec 32))
(declare-const symbol_455 (_ BitVec 32))
(declare-const symbol_316 (_ BitVec 32))
(declare-const symbol_299 (_ BitVec 32))
(declare-const symbol_2 (_ BitVec 32))
(declare-const symbol_101 (_ BitVec 32))
(declare-const symbol_277 (_ BitVec 32))
(declare-const symbol_199 (_ BitVec 32))
(declare-const symbol_688 (_ BitVec 32))
(declare-const symbol_543 (_ BitVec 32))
(declare-const symbol_415 (_ BitVec 32))
(declare-const symbol_459 (_ BitVec 32))
(declare-const symbol_400 (_ BitVec 32))
(declare-const symbol_646 (_ BitVec 32))
(declare-const symbol_773 (_ BitVec 32))
(declare-const symbol_722 (_ BitVec 32))
(declare-const symbol_369 (_ BitVec 32))
(declare-const symbol_238 (_ BitVec 32))
(declare-const symbol_395 (_ BitVec 32))
(declare-const symbol_273 (_ BitVec 32))
(declare-const symbol_76 (_ BitVec 32))
(declare-const symbol_70 (_ BitVec 32))
(declare-const symbol_203 (_ BitVec 32))
(declare-const symbol_187 (_ BitVec 32))
(declare-const symbol_545 (_ BitVec 32))
(declare-const symbol_353 (_ BitVec 32))
(declare-const symbol_55 (_ BitVec 32))
(declare-const symbol_462 (_ BitVec 32))
(declare-const symbol_162 (_ BitVec 32))
(declare-const symbol_361 (_ BitVec 32))
(declare-const symbol_347 (_ BitVec 32))
(declare-const symbol_692 (_ BitVec 32))
(declare-const symbol_767 (_ BitVec 32))
(declare-const symbol_708 (_ BitVec 32))
(declare-const symbol_227 (_ BitVec 32))
(declare-const symbol_175 (_ BitVec 32))
(declare-const symbol_578 (_ BitVec 32))
(declare-const symbol_570 (_ BitVec 32))
(declare-const symbol_461 (_ BitVec 32))
(declare-const symbol_372 (_ BitVec 32))
(declare-const symbol_109 (_ BitVec 32))
(declare-const symbol_431 (_ BitVec 32))
(declare-const symbol_295 (_ BitVec 32))
(declare-const symbol_557 (_ BitVec 32))
(declare-const symbol_314 (_ BitVec 32))
(declare-const symbol_349 (_ BitVec 32))
(declare-const symbol_302 (_ BitVec 32))
(declare-const symbol_632 (_ BitVec 32))
(declare-const symbol_716 (_ BitVec 32))
(declare-const symbol_482 (_ BitVec 32))
(declare-const symbol_480 (_ BitVec 32))
(declare-const symbol_539 (_ BitVec 32))
(declare-const symbol_499 (_ BitVec 32))
(declare-const symbol_85 (_ BitVec 32))
(declare-const symbol_700 (_ BitVec 32))
(declare-const symbol_345 (_ BitVec 32))
(declare-const symbol_220 (_ BitVec 32))
(declare-const symbol_4 (_ BitVec 32))
(declare-const symbol_310 (_ BitVec 32))
(declare-const symbol_666 (_ BitVec 32))
(declare-const symbol_135 (_ BitVec 32))
(declare-const symbol_505 (_ BitVec 32))
(declare-const symbol_291 (_ BitVec 32))
(declare-const symbol_624 (_ BitVec 32))
(declare-const symbol_599 (_ BitVec 32))
(declare-const symbol_161 (_ BitVec 32))
(declare-const symbol_259 (_ BitVec 32))
(declare-const symbol_565 (_ BitVec 32))
(declare-const symbol_525 (_ BitVec 32))
(declare-const symbol_371 (_ BitVec 32))
(declare-const symbol_640 (_ BitVec 32))
(declare-const symbol_427 (_ BitVec 32))
(declare-const symbol_61 (_ BitVec 32))
(declare-const symbol_636 (_ BitVec 32))
(declare-const symbol_145 (_ BitVec 32))
(declare-const symbol_126 (_ BitVec 32))
(declare-const symbol_423 (_ BitVec 32))
(declare-const symbol_280 (_ BitVec 32))
(declare-const symbol_263 (_ BitVec 32))
(declare-const symbol_648 (_ BitVec 32))
(declare-const symbol_191 (_ BitVec 32))
(declare-const symbol_341 (_ BitVec 32))
(declare-const symbol_450 (_ BitVec 32))
(declare-const symbol_97 (_ BitVec 32))
(declare-const symbol_780 (_ BitVec 32))
(declare-const symbol_591 (_ BitVec 32))
(declare-const symbol_390 (_ BitVec 32))
(declare-const symbol_784 (_ BitVec 32))
(declare-const symbol_359 (_ BitVec 32))
(declare-const symbol_576 (_ BitVec 32))
(declare-const symbol_333 (_ BitVec 32))
(declare-const symbol_147 (_ BitVec 32))
(declare-const symbol_170 (_ BitVec 32))
(declare-const symbol_469 (_ BitVec 32))
(declare-const symbol_88 (_ BitVec 32))
(declare-const symbol_324 (_ BitVec 32))
(declare-const symbol_307 (_ BitVec 32))
(declare-const symbol_684 (_ BitVec 32))
(declare-const symbol_769 (_ BitVec 32))
(declare-const symbol_551 (_ BitVec 32))
(declare-const symbol_286 (_ BitVec 32))
(declare-const symbol_124 (_ BitVec 32))
(declare-const symbol_13 (_ BitVec 32))
(declare-const symbol_694 (_ BitVec 32))
(declare-const symbol_676 (_ BitVec 32))
(declare-const symbol_53 (_ BitVec 32))
(declare-const symbol_786 (_ BitVec 32))
(declare-const symbol_138 (_ BitVec 32))
(declare-const symbol_8 (_ BitVec 32))
(declare-const symbol_195 (_ BitVec 32))
(declare-const symbol_386 (_ BitVec 32))
(declare-const symbol_201 (_ BitVec 32))
(declare-const symbol_48 (_ BitVec 32))
(declare-const symbol_603 (_ BitVec 32))
(declare-const symbol_312 (_ BitVec 32))
(declare-const symbol_714 (_ BitVec 32))
(declare-const symbol_536 (_ BitVec 32))
(declare-const symbol_483 (_ BitVec 32))
(declare-const symbol_476 (_ BitVec 32))
(declare-const symbol_419 (_ BitVec 32))
(declare-const symbol_754 (_ BitVec 32))
(declare-const symbol_615 (_ BitVec 32))
(declare-const symbol_35 (_ BitVec 32))
(declare-const symbol_226 (_ BitVec 32))
(declare-const symbol_78 (_ BitVec 32))
(declare-const symbol_771 (_ BitVec 32))
(declare-const symbol_650 (_ BitVec 32))
(declare-const symbol_189 (_ BitVec 32))
(declare-const symbol_672 (_ BitVec 32))
(declare-const symbol_271 (_ BitVec 32))
(declare-const symbol_17 (_ BitVec 32))
(declare-const symbol_706 (_ BitVec 32))
(declare-const symbol_751 (_ BitVec 32))
(declare-const symbol_574 (_ BitVec 32))
(declare-const symbol_447 (_ BitVec 32))
(declare-const symbol_549 (_ BitVec 32))
(declare-const symbol_503 (_ BitVec 32))
(declare-const symbol_425 (_ BitVec 32))
(declare-const symbol_553 (_ BitVec 32))
(declare-const symbol_130 (_ BitVec 32))
(declare-const symbol_634 (_ BitVec 32))
(declare-const symbol_611 (_ BitVec 32))
(declare-const symbol_491 (_ BitVec 32))
(declare-const symbol_382 (_ BitVec 32))
(declare-const symbol_740 (_ BitVec 32))
(declare-const symbol_433 (_ BitVec 32))
(declare-const symbol_421 (_ BitVec 32))
(declare-const symbol_128 (_ BitVec 32))
(declare-const symbol_732 (_ BitVec 32))
(declare-const symbol_205 (_ BitVec 32))
(declare-const symbol_327 (_ BitVec 32))
(declare-const symbol_301 (_ BitVec 32))
(declare-const symbol_28 (_ BitVec 32))
(declare-const symbol_734 (_ BitVec 32))
(declare-const symbol_696 (_ BitVec 32))
(declare-const symbol_628 (_ BitVec 32))
(declare-const symbol_664 (_ BitVec 32))
(declare-const symbol_443 (_ BitVec 32))
(declare-const symbol_335 (_ BitVec 32))
(declare-const symbol_184 (_ BitVec 32))
(declare-const symbol_489 (_ BitVec 32))
(declare-const symbol_166 (_ BitVec 32))
(declare-const symbol_726 (_ BitVec 32))
(declare-const symbol_529 (_ BitVec 32))
(declare-const symbol_698 (_ BitVec 32))
(declare-const symbol_229 (_ BitVec 32))
(declare-const symbol_660 (_ BitVec 32))
(declare-const symbol_329 (_ BitVec 32))
(declare-const symbol_710 (_ BitVec 32))
(declare-const symbol_365 (_ BitVec 32))
(declare-const symbol_288 (_ BitVec 32))
(declare-const symbol_117 (_ BitVec 32))
(declare-const symbol_46 (_ BitVec 32))
(declare-const symbol_467 (_ BitVec 32))
(declare-const symbol_74 (_ BitVec 32))
(declare-const symbol_22 (_ BitVec 32))
(declare-const symbol_580 (_ BitVec 32))
(declare-const symbol_517 (_ BitVec 32))
(declare-const symbol_439 (_ BitVec 32))
(declare-const symbol_322 (_ BitVec 32))
(declare-const symbol_609 (_ BitVec 32))
(declare-const symbol_80 (_ BitVec 32))
(declare-const symbol_297 (_ BitVec 32))
(declare-const symbol_50 (_ BitVec 32))
(declare-const symbol_589 (_ BitVec 32))
(declare-const symbol_244 (_ BitVec 32))
(declare-const symbol_30 (_ BitVec 32))
(declare-const symbol_654 (_ BitVec 32))
(declare-const symbol_367 (_ BitVec 32))
(declare-const symbol_318 (_ BitVec 32))
(declare-const symbol_19 (_ BitVec 32))
(declare-const symbol_761 (_ BitVec 32))
(declare-const symbol_218 (_ BitVec 32))
(declare-const symbol_93 (_ BitVec 32))
(declare-const symbol_742 (_ BitVec 32))
(declare-const symbol_151 (_ BitVec 32))
(declare-const symbol_617 (_ BitVec 32))
(declare-const symbol_718 (_ BitVec 32))
(declare-const symbol_404 (_ BitVec 32))
(declare-const symbol_670 (_ BitVec 32))
(declare-const symbol_601 (_ BitVec 32))
(declare-const symbol_587 (_ BitVec 32))
(declare-const symbol_320 (_ BitVec 32))
(declare-const symbol_242 (_ BitVec 32))
(declare-const symbol_39 (_ BitVec 32))
(declare-const symbol_702 (_ BitVec 32))
(declare-const symbol_678 (_ BitVec 32))
(declare-const symbol_736 (_ BitVec 32))
(declare-const symbol_159 (_ BitVec 32))
(declare-const symbol_223 (_ BitVec 32))
(declare-const symbol_119 (_ BitVec 32))
(declare-const symbol_337 (_ BitVec 32))
(declare-const symbol_515 (_ BitVec 32))
(declare-const symbol_331 (_ BitVec 32))
(declare-const symbol_261 (_ BitVec 32))
(declare-const symbol_613 (_ BitVec 32))
(declare-const symbol_379 (_ BitVec 32))
(declare-const symbol_32 (_ BitVec 32))
(declare-const symbol_232 (_ BitVec 32))
(declare-const symbol_155 (_ BitVec 32))
(declare-const symbol_68 (_ BitVec 32))
(declare-const symbol_305 (_ BitVec 32))
(declare-const symbol_744 (_ BitVec 32))
(declare-const symbol_728 (_ BitVec 32))
(declare-const symbol_523 (_ BitVec 32))
(declare-const symbol_283 (_ BitVec 32))
(declare-const symbol_559 (_ BitVec 32))
(declare-const symbol_153 (_ BitVec 32))
(declare-const symbol_149 (_ BitVec 32))
(declare-const symbol_755 (_ BitVec 32))
(declare-const symbol_527 (_ BitVec 32))
(declare-const symbol_33 (_ BitVec 32))
(declare-const symbol_457 (_ BitVec 32))
(declare-const symbol_209 (_ BitVec 32))
(declare-const symbol_164 (_ BitVec 32))
(declare-const symbol_113 (_ BitVec 32))
(declare-const symbol_777 (_ BitVec 32))
(declare-const symbol_384 (_ BitVec 32))
(declare-const symbol_182 (_ BitVec 32))
(declare-const symbol_622 (_ BitVec 32))
(declare-const symbol_253 (_ BitVec 32))
(declare-const symbol_63 (_ BitVec 32))
(declare-const symbol_644 (_ BitVec 32))
(declare-const symbol_409 (_ BitVec 32))
(declare-const symbol_157 (_ BitVec 32))
(declare-const symbol_596 (_ BitVec 32))
(declare-const symbol_435 (_ BitVec 32))
(declare-const symbol_374 (_ BitVec 32))
(declare-const symbol_168 (_ BitVec 32))
(declare-const symbol_658 (_ BitVec 32))
(declare-const symbol_172 (_ BitVec 32))
(declare-const symbol_143 (_ BitVec 32))
(declare-const symbol_10 (_ BitVec 32))
(declare-const symbol_532 (_ BitVec 32))
(declare-const symbol_790 (_ BitVec 32))
(declare-const symbol_724 (_ BitVec 32))
(declare-const symbol_511 (_ BitVec 32))
(declare-const symbol_411 (_ BitVec 32))
(declare-const symbol_775 (_ BitVec 32))
(declare-const symbol_674 (_ BitVec 32))
(declare-const symbol_0 (_ BitVec 32))
(declare-const symbol_487 (_ BitVec 32))
(declare-const symbol_452 (_ BitVec 32))
(declare-const symbol_82 (_ BitVec 32))
(declare-const symbol_712 (_ BitVec 32))
(declare-const symbol_521 (_ BitVec 32))
(declare-const symbol_638 (_ BitVec 32))
(declare-const symbol_626 (_ BitVec 32))
(declare-const symbol_65 (_ BitVec 32))
(declare-const symbol_501 (_ BitVec 32))
(declare-const symbol_509 (_ BitVec 32))
(declare-const symbol_248 (_ BitVec 32))
(declare-const symbol_133 (_ BitVec 32))
(declare-const symbol_464 (_ BitVec 32))
(declare-const symbol_325 (_ BitVec 32))
(declare-const symbol_236 (_ BitVec 32))
(declare-const symbol_105 (_ BitVec 32))
(declare-const symbol_6 (_ BitVec 32))
(declare-const symbol_730 (_ BitVec 32))
(declare-const symbol_582 (_ BitVec 32))
(declare-const symbol_572 (_ BitVec 32))
(declare-const symbol_207 (_ BitVec 32))
(declare-const symbol_41 (_ BitVec 32))
(declare-const symbol_83 (_ BitVec 32))
(declare-const symbol_686 (_ BitVec 32))
(declare-const symbol_788 (_ BitVec 32))
(declare-const symbol_122 (_ BitVec 32))
(declare-const symbol_497 (_ BitVec 32))
(declare-const symbol_763 (_ BitVec 32))
(declare-const symbol_690 (_ BitVec 32))
(declare-const symbol_308 (_ BitVec 32))
(declare-const symbol_537 (_ BitVec 32))
(declare-const symbol_668 (_ BitVec 32))
(declare-const symbol_555 (_ BitVec 32))
(declare-const symbol_363 (_ BitVec 32))
(declare-const symbol_211 (_ BitVec 32))
(declare-const symbol_445 (_ BitVec 32))
(declare-const symbol_402 (_ BitVec 32))
(declare-const symbol_275 (_ BitVec 32))
(declare-const symbol_246 (_ BitVec 32))
(declare-const symbol_37 (_ BitVec 32))
(declare-const symbol_339 (_ BitVec 32))
(declare-const symbol_534 (_ BitVec 32))
(declare-const symbol_397 (_ BitVec 32))
(declare-const symbol_99 (_ BitVec 32))
(declare-const symbol_642 (_ BitVec 32))
(declare-const symbol_495 (_ BitVec 32))
(declare-const symbol_107 (_ BitVec 32))
(declare-const symbol_51 (_ BitVec 32))
(declare-const symbol_121 (_ BitVec 32))
(declare-const symbol_630 (_ BitVec 32))
(declare-const symbol_59 (_ BitVec 32))
(declare-const symbol_56 (_ BitVec 32))
(declare-const symbol_680 (_ BitVec 32))
(declare-const symbol_376 (_ BitVec 32))
(declare-const symbol_720 (_ BitVec 32))
(declare-const symbol_437 (_ BitVec 32))
(declare-const symbol_417 (_ BitVec 32))
(declare-const symbol_782 (_ BitVec 32))
(declare-const symbol_607 (_ BitVec 32))
(declare-const symbol_563 (_ BitVec 32))
(declare-const symbol_547 (_ BitVec 32))
(declare-const symbol_519 (_ BitVec 32))
(declare-const symbol_355 (_ BitVec 32))
(declare-const symbol_351 (_ BitVec 32))
(declare-const symbol_213 (_ BitVec 32))
(assert (= symbol_790 (_ bv15 32)))
(assert (not (not (= symbol_790 (_ bv6 32)))))
(assert (not (not (= symbol_788 (_ bv6 32)))))
(assert (not (not (= symbol_786 (_ bv6 32)))))
(assert (not (not (= symbol_784 (_ bv6 32)))))
(assert (not (not (= symbol_782 (_ bv6 32)))))
(assert (not (not (= symbol_780 (_ bv6 32)))))
(assert (not (not (= symbol_777 (_ bv6 32)))))
(assert (not (not (= symbol_775 (_ bv6 32)))))
(assert (not (not (= symbol_773 (_ bv6 32)))))
(assert (not (not (= symbol_771 (_ bv6 32)))))
(assert (not (not (= symbol_769 (_ bv6 32)))))
(assert (not (not (= symbol_767 (_ bv6 32)))))
(assert (not (not (= symbol_765 (_ bv6 32)))))
(assert (not (not (= symbol_763 (_ bv6 32)))))
(assert (not (not (= symbol_761 (_ bv6 32)))))
(assert (not (not (= symbol_759 (_ bv6 32)))))
(assert (not (not (= symbol_757 (_ bv6 32)))))
(assert (not (not (= symbol_755 (_ bv6 32)))))
(assert (not (not (= symbol_754 (_ bv6 32)))))
(assert (not (not (= symbol_751 (_ bv6 32)))))
(assert (not (not (= symbol_750 (_ bv6 32)))))
(assert (not (not (= symbol_748 (_ bv6 32)))))
(assert (not (not (= symbol_746 (_ bv6 32)))))
(assert (not (not (= symbol_744 (_ bv6 32)))))
(assert (not (not (= symbol_742 (_ bv6 32)))))
(assert (not (not (= symbol_740 (_ bv6 32)))))
(assert (not (not (= symbol_738 (_ bv6 32)))))
(assert (not (not (= symbol_736 (_ bv6 32)))))
(assert (not (not (= symbol_734 (_ bv6 32)))))
(assert (not (not (= symbol_732 (_ bv6 32)))))
(assert (not (not (= symbol_730 (_ bv6 32)))))
(assert (not (not (= symbol_728 (_ bv6 32)))))
(assert (not (not (= symbol_726 (_ bv6 32)))))
(assert (not (not (= symbol_724 (_ bv6 32)))))
(assert (not (not (= symbol_722 (_ bv6 32)))))
(assert (not (not (= symbol_720 (_ bv6 32)))))
(assert (not (not (= symbol_718 (_ bv6 32)))))
(assert (not (not (= symbol_716 (_ bv6 32)))))
(assert (not (not (= symbol_714 (_ bv6 32)))))
(assert (not (not (= symbol_712 (_ bv6 32)))))
(assert (not (not (= symbol_710 (_ bv6 32)))))
(assert (not (not (= symbol_708 (_ bv6 32)))))
(assert (not (not (= symbol_706 (_ bv6 32)))))
(assert (not (not (= symbol_704 (_ bv6 32)))))
(assert (not (not (= symbol_702 (_ bv6 32)))))
(assert (not (not (= symbol_700 (_ bv6 32)))))
(assert (not (not (= symbol_698 (_ bv6 32)))))
(assert (not (not (= symbol_696 (_ bv6 32)))))
(assert (not (not (= symbol_694 (_ bv6 32)))))
(assert (not (not (= symbol_692 (_ bv6 32)))))
(assert (not (not (= symbol_690 (_ bv6 32)))))
(assert (not (not (= symbol_688 (_ bv6 32)))))
(assert (not (not (= symbol_686 (_ bv6 32)))))
(assert (not (not (= symbol_684 (_ bv6 32)))))
(assert (not (not (= symbol_682 (_ bv6 32)))))
(assert (not (not (= symbol_680 (_ bv6 32)))))
(assert (not (not (= symbol_678 (_ bv6 32)))))
(assert (not (not (= symbol_676 (_ bv6 32)))))
(assert (not (not (= symbol_674 (_ bv6 32)))))
(assert (not (not (= symbol_672 (_ bv6 32)))))
(assert (not (not (= symbol_670 (_ bv6 32)))))
(assert (not (not (= symbol_668 (_ bv6 32)))))
(assert (not (not (= symbol_666 (_ bv6 32)))))
(assert (not (not (= symbol_664 (_ bv6 32)))))
(assert (not (not (= symbol_662 (_ bv6 32)))))
(assert (not (not (= symbol_660 (_ bv6 32)))))
(assert (not (not (= symbol_658 (_ bv6 32)))))
(assert (not (not (= symbol_656 (_ bv6 32)))))
(assert (not (not (= symbol_654 (_ bv6 32)))))
(assert (not (not (= symbol_652 (_ bv6 32)))))
(assert (not (not (= symbol_650 (_ bv6 32)))))
(assert (not (not (= symbol_648 (_ bv6 32)))))
(assert (not (not (= symbol_646 (_ bv6 32)))))
(assert (not (not (= symbol_644 (_ bv6 32)))))
(assert (not (not (= symbol_642 (_ bv6 32)))))
(assert (not (not (= symbol_640 (_ bv6 32)))))
(assert (not (not (= symbol_638 (_ bv6 32)))))
(assert (not (not (= symbol_636 (_ bv6 32)))))
(assert (not (not (= symbol_634 (_ bv6 32)))))
(assert (not (not (= symbol_632 (_ bv6 32)))))
(assert (not (not (= symbol_630 (_ bv6 32)))))
(assert (not (not (= symbol_628 (_ bv6 32)))))
(assert (not (not (= symbol_626 (_ bv6 32)))))
(assert (not (not (= symbol_624 (_ bv6 32)))))
(assert (not (not (= symbol_622 (_ bv6 32)))))
(assert (not (not (= symbol_620 (_ bv6 32)))))
(assert (not (not (= symbol_617 (_ bv6 32)))))
(assert (not (not (= symbol_615 (_ bv6 32)))))
(assert (not (not (= symbol_613 (_ bv6 32)))))
(assert (not (not (= symbol_611 (_ bv6 32)))))
(assert (not (not (= symbol_609 (_ bv6 32)))))
(assert (not (not (= symbol_607 (_ bv6 32)))))
(assert (not (not (= symbol_605 (_ bv6 32)))))
(assert (not (not (= symbol_603 (_ bv6 32)))))
(assert (not (not (= symbol_601 (_ bv6 32)))))
(assert (not (not (= symbol_599 (_ bv6 32)))))
(assert (not (not (= symbol_596 (_ bv6 32)))))
(assert (not (not (= symbol_594 (_ bv6 32)))))
(assert (not (not (= symbol_593 (_ bv6 32)))))
(assert (not (not (= symbol_591 (_ bv6 32)))))
(assert (not (not (= symbol_589 (_ bv6 32)))))
(assert (not (not (= symbol_587 (_ bv6 32)))))
(assert (not (not (= symbol_584 (_ bv6 32)))))
(assert (not (not (= symbol_582 (_ bv6 32)))))
(assert (not (not (= symbol_580 (_ bv6 32)))))
(assert (not (not (= symbol_578 (_ bv6 32)))))
(assert (not (not (= symbol_576 (_ bv6 32)))))
(assert (not (not (= symbol_574 (_ bv6 32)))))
(assert (not (not (= symbol_572 (_ bv6 32)))))
(assert (not (not (= symbol_570 (_ bv6 32)))))
(assert (not (not (= symbol_568 (_ bv6 32)))))
(assert (not (not (= symbol_565 (_ bv6 32)))))
(assert (not (not (= symbol_563 (_ bv6 32)))))
(assert (not (not (= symbol_562 (_ bv6 32)))))
(assert (not (not (= symbol_559 (_ bv6 32)))))
(assert (not (not (= symbol_557 (_ bv6 32)))))
(assert (not (not (= symbol_555 (_ bv6 32)))))
(assert (not (not (= symbol_553 (_ bv6 32)))))
(assert (not (not (= symbol_551 (_ bv6 32)))))
(assert (not (not (= symbol_549 (_ bv6 32)))))
(assert (not (not (= symbol_547 (_ bv6 32)))))
(assert (not (not (= symbol_545 (_ bv6 32)))))
(assert (not (not (= symbol_543 (_ bv6 32)))))
(assert (not (not (= symbol_541 (_ bv6 32)))))
(assert (not (not (= symbol_539 (_ bv6 32)))))
(assert (not (not (= symbol_537 (_ bv6 32)))))
(assert (not (not (= symbol_536 (_ bv6 32)))))
(assert (not (not (= symbol_534 (_ bv6 32)))))
(assert (not (not (= symbol_532 (_ bv6 32)))))
(assert (not (not (= symbol_529 (_ bv6 32)))))
(assert (not (not (= symbol_527 (_ bv6 32)))))
(assert (not (not (= symbol_525 (_ bv6 32)))))
(assert (not (not (= symbol_523 (_ bv6 32)))))
(assert (not (not (= symbol_521 (_ bv6 32)))))
(assert (not (not (= symbol_519 (_ bv6 32)))))
(assert (not (not (= symbol_517 (_ bv6 32)))))
(assert (not (not (= symbol_515 (_ bv6 32)))))
(assert (not (not (= symbol_513 (_ bv6 32)))))
(assert (not (not (= symbol_511 (_ bv6 32)))))
(assert (not (not (= symbol_509 (_ bv6 32)))))
(assert (not (not (= symbol_507 (_ bv6 32)))))
(assert (not (not (= symbol_505 (_ bv6 32)))))
(assert (not (not (= symbol_503 (_ bv6 32)))))
(assert (not (not (= symbol_501 (_ bv6 32)))))
(assert (not (not (= symbol_499 (_ bv6 32)))))
(assert (not (not (= symbol_497 (_ bv6 32)))))
(assert (not (not (= symbol_495 (_ bv6 32)))))
(assert (not (not (= symbol_493 (_ bv6 32)))))
(assert (not (not (= symbol_491 (_ bv6 32)))))
(assert (not (not (= symbol_489 (_ bv6 32)))))
(assert (not (not (= symbol_487 (_ bv6 32)))))
(assert (not (not (= symbol_485 (_ bv6 32)))))
(assert (not (not (= symbol_483 (_ bv6 32)))))
(assert (not (not (= symbol_482 (_ bv6 32)))))
(assert (not (not (= symbol_480 (_ bv6 32)))))
(assert (not (not (= symbol_478 (_ bv6 32)))))
(assert (not (not (= symbol_476 (_ bv6 32)))))
(assert (not (not (= symbol_474 (_ bv6 32)))))
(assert (not (not (= symbol_472 (_ bv6 32)))))
(assert (not (not (= symbol_470 (_ bv6 32)))))
(assert (not (not (= symbol_469 (_ bv6 32)))))
(assert (not (not (= symbol_467 (_ bv6 32)))))
(assert (not (not (= symbol_464 (_ bv6 32)))))
(assert (not (not (= symbol_462 (_ bv6 32)))))
(assert (not (not (= symbol_461 (_ bv6 32)))))
(assert (not (not (= symbol_459 (_ bv6 32)))))
(assert (not (not (= symbol_457 (_ bv6 32)))))
(assert (not (not (= symbol_455 (_ bv6 32)))))
(assert (not (not (= symbol_452 (_ bv6 32)))))
(assert (not (not (= symbol_450 (_ bv6 32)))))
(assert (not (not (= symbol_448 (_ bv6 32)))))
(assert (not (not (= symbol_447 (_ bv6 32)))))
(assert (not (not (= symbol_445 (_ bv6 32)))))
(assert (not (not (= symbol_443 (_ bv6 32)))))
(assert (not (not (= symbol_441 (_ bv6 32)))))
(assert (not (not (= symbol_439 (_ bv6 32)))))
(assert (not (not (= symbol_437 (_ bv6 32)))))
(assert (not (not (= symbol_435 (_ bv6 32)))))
(assert (not (not (= symbol_433 (_ bv6 32)))))
(assert (not (not (= symbol_431 (_ bv6 32)))))
(assert (not (not (= symbol_429 (_ bv6 32)))))
(assert (not (not (= symbol_427 (_ bv6 32)))))
(assert (not (not (= symbol_425 (_ bv6 32)))))
(assert (not (not (= symbol_423 (_ bv6 32)))))
(assert (not (not (= symbol_421 (_ bv6 32)))))
(assert (not (not (= symbol_419 (_ bv6 32)))))
(assert (not (not (= symbol_417 (_ bv6 32)))))
(assert (not (not (= symbol_415 (_ bv6 32)))))
(assert (not (not (= symbol_413 (_ bv6 32)))))
(assert (not (not (= symbol_411 (_ bv6 32)))))
(assert (not (not (= symbol_409 (_ bv6 32)))))
(assert (not (not (= symbol_407 (_ bv6 32)))))
(assert (not (not (= symbol_404 (_ bv6 32)))))
(assert (not (not (= symbol_402 (_ bv6 32)))))
(assert (not (not (= symbol_400 (_ bv6 32)))))
(assert (not (not (= symbol_398 (_ bv6 32)))))
(assert (not (not (= symbol_397 (_ bv6 32)))))
(assert (not (not (= symbol_395 (_ bv6 32)))))
(assert (not (not (= symbol_393 (_ bv6 32)))))
(assert (not (not (= symbol_390 (_ bv6 32)))))
(assert (not (not (= symbol_388 (_ bv6 32)))))
(assert (not (not (= symbol_386 (_ bv6 32)))))
(assert (not (not (= symbol_384 (_ bv6 32)))))
(assert (not (not (= symbol_382 (_ bv6 32)))))
(assert (not (not (= symbol_381 (_ bv6 32)))))
(assert (not (not (= symbol_379 (_ bv6 32)))))
(assert (not (not (= symbol_376 (_ bv6 32)))))
(assert (not (not (= symbol_374 (_ bv6 32)))))
(assert (not (not (= symbol_372 (_ bv6 32)))))
(assert (not (not (= symbol_371 (_ bv6 32)))))
(assert (not (not (= symbol_369 (_ bv6 32)))))
(assert (not (not (= symbol_367 (_ bv6 32)))))
(assert (not (not (= symbol_365 (_ bv6 32)))))
(assert (not (not (= symbol_363 (_ bv6 32)))))
(assert (not (not (= symbol_361 (_ bv6 32)))))
(assert (not (not (= symbol_359 (_ bv6 32)))))
(assert (not (not (= symbol_357 (_ bv6 32)))))
(assert (not (not (= symbol_355 (_ bv6 32)))))
(assert (not (not (= symbol_353 (_ bv6 32)))))
(assert (not (not (= symbol_351 (_ bv6 32)))))
(assert (not (not (= symbol_349 (_ bv6 32)))))
(assert (not (not (= symbol_347 (_ bv6 32)))))
(assert (not (not (= symbol_345 (_ bv6 32)))))
(assert (not (not (= symbol_343 (_ bv6 32)))))
(assert (not (not (= symbol_341 (_ bv6 32)))))
(assert (not (not (= symbol_339 (_ bv6 32)))))
(assert (not (not (= symbol_337 (_ bv6 32)))))
(assert (not (not (= symbol_335 (_ bv6 32)))))
(assert (not (not (= symbol_333 (_ bv6 32)))))
(assert (not (not (= symbol_331 (_ bv6 32)))))
(assert (not (not (= symbol_329 (_ bv6 32)))))
(assert (not (not (= symbol_327 (_ bv6 32)))))
(assert (not (not (= symbol_325 (_ bv6 32)))))
(assert (not (not (= symbol_324 (_ bv6 32)))))
(assert (not (not (= symbol_322 (_ bv6 32)))))
(assert (not (not (= symbol_320 (_ bv6 32)))))
(assert (not (not (= symbol_318 (_ bv6 32)))))
(assert (not (not (= symbol_316 (_ bv6 32)))))
(assert (not (not (= symbol_314 (_ bv6 32)))))
(assert (not (not (= symbol_312 (_ bv6 32)))))
(assert (not (not (= symbol_310 (_ bv6 32)))))
(assert (not (not (= symbol_308 (_ bv6 32)))))
(assert (not (not (= symbol_307 (_ bv6 32)))))
(assert (not (not (= symbol_305 (_ bv6 32)))))
(assert (not (not (= symbol_302 (_ bv6 32)))))
(assert (not (not (= symbol_301 (_ bv6 32)))))
(assert (not (not (= symbol_299 (_ bv6 32)))))
(assert (not (not (= symbol_297 (_ bv6 32)))))
(assert (not (not (= symbol_295 (_ bv6 32)))))
(assert (not (not (= symbol_293 (_ bv6 32)))))
(assert (not (not (= symbol_291 (_ bv6 32)))))
(assert (not (not (= symbol_289 (_ bv6 32)))))
(assert (not (not (= symbol_288 (_ bv6 32)))))
(assert (not (not (= symbol_286 (_ bv6 32)))))
(assert (not (not (= symbol_283 (_ bv6 32)))))
(assert (not (not (= symbol_281 (_ bv6 32)))))
(assert (not (not (= symbol_280 (_ bv6 32)))))
(assert (not (not (= symbol_277 (_ bv6 32)))))
(assert (not (not (= symbol_275 (_ bv6 32)))))
(assert (not (not (= symbol_273 (_ bv6 32)))))
(assert (not (not (= symbol_271 (_ bv6 32)))))
(assert (not (not (= symbol_269 (_ bv6 32)))))
(assert (not (not (= symbol_267 (_ bv6 32)))))
(assert (not (not (= symbol_265 (_ bv6 32)))))
(assert (not (not (= symbol_263 (_ bv6 32)))))
(assert (not (not (= symbol_261 (_ bv6 32)))))
(assert (not (not (= symbol_259 (_ bv6 32)))))
(assert (not (not (= symbol_257 (_ bv6 32)))))
(assert (not (not (= symbol_255 (_ bv6 32)))))
(assert (not (not (= symbol_253 (_ bv6 32)))))
(assert (not (not (= symbol_251 (_ bv6 32)))))
(assert (not (not (= symbol_250 (_ bv6 32)))))
(assert (not (not (= symbol_248 (_ bv6 32)))))
(assert (not (not (= symbol_246 (_ bv6 32)))))
(assert (not (not (= symbol_244 (_ bv6 32)))))
(assert (not (not (= symbol_242 (_ bv6 32)))))
(assert (not (not (= symbol_240 (_ bv6 32)))))
(assert (not (not (= symbol_238 (_ bv6 32)))))
(assert (not (not (= symbol_236 (_ bv6 32)))))
(assert (not (not (= symbol_234 (_ bv6 32)))))
(assert (not (not (= symbol_232 (_ bv6 32)))))
(assert (not (not (= symbol_231 (_ bv6 32)))))
(assert (not (not (= symbol_229 (_ bv6 32)))))
(assert (not (not (= symbol_227 (_ bv6 32)))))
(assert (not (not (= symbol_226 (_ bv6 32)))))
(assert (not (not (= symbol_223 (_ bv6 32)))))
(assert (not (not (= symbol_222 (_ bv6 32)))))
(assert (not (not (= symbol_220 (_ bv6 32)))))
(assert (not (not (= symbol_218 (_ bv6 32)))))
(assert (not (not (= symbol_216 (_ bv6 32)))))
(assert (not (not (= symbol_213 (_ bv6 32)))))
(assert (not (not (= symbol_211 (_ bv6 32)))))
(assert (not (not (= symbol_209 (_ bv6 32)))))
(assert (not (not (= symbol_207 (_ bv6 32)))))
(assert (not (not (= symbol_205 (_ bv6 32)))))
(assert (not (not (= symbol_203 (_ bv6 32)))))
(assert (not (not (= symbol_201 (_ bv6 32)))))
(assert (not (not (= symbol_199 (_ bv6 32)))))
(assert (not (not (= symbol_197 (_ bv6 32)))))
(assert (not (not (= symbol_195 (_ bv6 32)))))
(assert (not (not (= symbol_193 (_ bv6 32)))))
(assert (not (not (= symbol_191 (_ bv6 32)))))
(assert (not (not (= symbol_189 (_ bv6 32)))))
(assert (not (not (= symbol_187 (_ bv6 32)))))
(assert (not (not (= symbol_184 (_ bv6 32)))))
(assert (not (not (= symbol_182 (_ bv6 32)))))
(assert (not (not (= symbol_180 (_ bv6 32)))))
(assert (not (not (= symbol_178 (_ bv6 32)))))
(assert (not (not (= symbol_175 (_ bv6 32)))))
(assert (not (not (= symbol_172 (_ bv6 32)))))
(assert (not (not (= symbol_170 (_ bv6 32)))))
(assert (not (not (= symbol_168 (_ bv6 32)))))
(assert (not (not (= symbol_166 (_ bv6 32)))))
(assert (not (not (= symbol_164 (_ bv6 32)))))
(assert (not (not (= symbol_162 (_ bv6 32)))))
(assert (not (not (= symbol_161 (_ bv6 32)))))
(assert (not (not (= symbol_159 (_ bv6 32)))))
(assert (not (not (= symbol_157 (_ bv6 32)))))
(assert (not (not (= symbol_155 (_ bv6 32)))))
(assert (not (not (= symbol_153 (_ bv6 32)))))
(assert (not (not (= symbol_151 (_ bv6 32)))))
(assert (not (not (= symbol_149 (_ bv6 32)))))
(assert (not (not (= symbol_147 (_ bv6 32)))))
(assert (not (not (= symbol_145 (_ bv6 32)))))
(assert (not (not (= symbol_143 (_ bv6 32)))))
(assert (not (not (= symbol_140 (_ bv6 32)))))
(assert (not (not (= symbol_138 (_ bv6 32)))))
(assert (not (not (= symbol_135 (_ bv6 32)))))
(assert (not (not (= symbol_133 (_ bv6 32)))))
(assert (not (not (= symbol_131 (_ bv6 32)))))
(assert (not (not (= symbol_130 (_ bv6 32)))))
(assert (not (not (= symbol_128 (_ bv6 32)))))
(assert (not (not (= symbol_126 (_ bv6 32)))))
(assert (not (not (= symbol_124 (_ bv6 32)))))
(assert (not (not (= symbol_122 (_ bv6 32)))))
(assert (not (not (= symbol_121 (_ bv6 32)))))
(assert (not (not (= symbol_119 (_ bv6 32)))))
(assert (not (not (= symbol_117 (_ bv6 32)))))
(assert (not (not (= symbol_115 (_ bv6 32)))))
(assert (not (not (= symbol_113 (_ bv6 32)))))
(assert (not (not (= symbol_110 (_ bv6 32)))))
(assert (not (not (= symbol_109 (_ bv6 32)))))
(assert (not (not (= symbol_107 (_ bv6 32)))))
(assert (not (not (= symbol_105 (_ bv6 32)))))
(assert (not (not (= symbol_103 (_ bv6 32)))))
(assert (not (not (= symbol_101 (_ bv6 32)))))
(assert (not (not (= symbol_99 (_ bv6 32)))))
(assert (not (not (= symbol_97 (_ bv6 32)))))
(assert (not (not (= symbol_95 (_ bv6 32)))))
(assert (not (not (= symbol_93 (_ bv6 32)))))
(assert (not (not (= symbol_91 (_ bv6 32)))))
(assert (not (not (= symbol_88 (_ bv6 32)))))
(assert (not (not (= symbol_85 (_ bv6 32)))))
(assert (not (not (= symbol_83 (_ bv6 32)))))
(assert (not (not (= symbol_82 (_ bv6 32)))))
(assert (not (not (= symbol_80 (_ bv6 32)))))
(assert (not (not (= symbol_78 (_ bv6 32)))))
(assert (not (not (= symbol_76 (_ bv6 32)))))
(assert (not (not (= symbol_74 (_ bv6 32)))))
(assert (not (not (= symbol_73 (_ bv6 32)))))
(assert (not (not (= symbol_70 (_ bv6 32)))))
(assert (not (not (= symbol_68 (_ bv6 32)))))
(assert (not (not (= symbol_66 (_ bv6 32)))))
(assert (not (not (= symbol_65 (_ bv6 32)))))
(assert (not (not (= symbol_63 (_ bv6 32)))))
(assert (not (not (= symbol_61 (_ bv6 32)))))
(assert (not (not (= symbol_59 (_ bv6 32)))))
(assert (not (not (= symbol_58 (_ bv6 32)))))
(assert (not (not (= symbol_56 (_ bv6 32)))))
(assert (not (not (= symbol_55 (_ bv6 32)))))
(assert (not (not (= symbol_53 (_ bv6 32)))))
(assert (not (not (= symbol_51 (_ bv6 32)))))
(assert (not (not (= symbol_50 (_ bv6 32)))))
(assert (not (not (= symbol_48 (_ bv6 32)))))
(assert (not (not (= symbol_46 (_ bv6 32)))))
(assert (not (not (= symbol_44 (_ bv6 32)))))
(assert (not (not (= symbol_41 (_ bv6 32)))))
(assert (not (not (= symbol_39 (_ bv6 32)))))
(assert (not (not (= symbol_37 (_ bv6 32)))))
(assert (not (not (= symbol_35 (_ bv6 32)))))
(assert (not (not (= symbol_33 (_ bv6 32)))))
(assert (not (not (= symbol_32 (_ bv6 32)))))
(assert (not (not (= symbol_30 (_ bv6 32)))))
(assert (not (not (= symbol_28 (_ bv6 32)))))
(assert (not (not (= symbol_26 (_ bv6 32)))))
(assert (not (not (= symbol_25 (_ bv6 32)))))
(assert (not (not (= symbol_22 (_ bv6 32)))))
(assert (not (not (= symbol_19 (_ bv6 32)))))
(assert (not (not (= symbol_17 (_ bv6 32)))))
(assert (not (not (= symbol_15 (_ bv6 32)))))
(assert (not (not (= symbol_13 (_ bv6 32)))))
(assert (not (not (= symbol_10 (_ bv6 32)))))
(assert (not (not (= symbol_8 (_ bv6 32)))))
(assert (not (not (= symbol_6 (_ bv6 32)))))
(assert (not (not (= symbol_4 (_ bv6 32)))))
(assert (not (not (= symbol_2 (_ bv6 32)))))
(assert (not (not (= symbol_0 (_ bv6 32)))))
(check-sat)